* #variable= 214 #constraint= 94
min: +496 x1 +105 x2 +861 x3 +1431 x4 +1830 x5 +496 x6 +1128 x7 +55 x8 +561 x9 +946 x10 +325 x11 +561 x12 +528 x13 +78 x14 +1081 x15 +820 x16 +1176 x17 +1176 x18 +3160 x19 +1378 x20 +3081 x21 +6441 x22 +4753 x23 +171 x24 +2775 x25 +666 x26 +903 x27 +595 x28 +276 x29 +1081 x30 +2080 x31 +435 x32 +666 x33 +231 x34 +136 x35 +1540 x36 +1711 x37 +1891 x38 +1225 x39 +780 x40 +5565 x41 +4278 x42 ;

+496 x1 +105 x2 +861 x3 +1431 x4 +1830 x5 +496 x6 +1128 x7 +55 x8 +561 x9 +946 x10 +325 x11 +561 x12 +528 x13 +78 x14 +1081 x15 +820 x16 +1176 x17 +1176 x18 +3160 x19 +1378 x20 +3081 x21 +6441 x22 +4753 x23 +171 x24 +2775 x25 +666 x26 +903 x27 +595 x28 +276 x29 +1081 x30 +2080 x31 +435 x32 +666 x33 +231 x34 +136 x35 +1540 x36 +1711 x37 +1891 x38 +1225 x39 +780 x40 +5565 x41 +4278 x42 >= 0 ;

+1 x1 +1 x2 +1 x3 +1 x4 +1 x5 +1 x6 = 1 ;
+1 x7 +1 x8 +1 x9 +1 x10 +1 x11 +1 x12 = 1 ;
+1 x13 +1 x14 +1 x15 +1 x16 +1 x17 +1 x18 = 1 ;
+1 x19 +1 x20 +1 x21 +1 x22 +1 x23 +1 x24 = 1 ;
+1 x25 +1 x26 +1 x27 +1 x28 +1 x29 +1 x30 = 1 ;
+1 x31 +1 x32 +1 x33 +1 x34 +1 x35 +1 x36 = 1 ;
+1 x37 +1 x38 +1 x39 +1 x40 +1 x41 +1 x42 = 1 ;

+1 x7 +1 x13 +1 x19 +1 x25 +1 x31 +1 x37 = 1 ;
+1 x1 +1 x14 +1 x20 +1 x26 +1 x32 +1 x38 = 1 ;
+1 x2 +1 x8 +1 x21 +1 x27 +1 x33 +1 x39 = 1 ;
+1 x3 +1 x9 +1 x15 +1 x28 +1 x34 +1 x40 = 1 ;
+1 x4 +1 x10 +1 x16 +1 x22 +1 x35 +1 x41 = 1 ;
+1 x5 +1 x11 +1 x17 +1 x23 +1 x29 +1 x42 = 1 ;
+1 x6 +1 x12 +1 x18 +1 x24 +1 x30 +1 x36 = 1 ;

+1 x43 +2 x44 +4 x45 +8 x46  >= 0 ;
+1 x47 +2 x48 +4 x49 +8 x50  >= 0 ;
+1 x51 +2 x52 +4 x53 +8 x54  >= 0 ;
+1 x55 +2 x56 +4 x57 +8 x58  >= 0 ;
+1 x59 +2 x60 +4 x61 +8 x62  >= 0 ;
+1 x63 +2 x64 +4 x65 +8 x66  >= 0 ;
+1 x67 +2 x68 +4 x69 +8 x70  >= 0 ;


+1 x71 +2 x72 +4 x73 +8 x74  >= 0 ;
+1 x43 +2 x44 +4 x45 +8 x46 -1 x47 -2 x48 -4 x49 -8 x50 +7 x1 +1 x71 +2 x72 +4 x73 +8 x74  = 6 ;

+1 x75 +2 x76 +4 x77 +8 x78  >= 0 ;
+1 x43 +2 x44 +4 x45 +8 x46 -1 x51 -2 x52 -4 x53 -8 x54 +7 x2 +1 x75 +2 x76 +4 x77 +8 x78  = 6 ;

+1 x79 +2 x80 +4 x81 +8 x82  >= 0 ;
+1 x43 +2 x44 +4 x45 +8 x46 -1 x55 -2 x56 -4 x57 -8 x58 +7 x3 +1 x79 +2 x80 +4 x81 +8 x82  = 6 ;

+1 x83 +2 x84 +4 x85 +8 x86  >= 0 ;
+1 x43 +2 x44 +4 x45 +8 x46 -1 x59 -2 x60 -4 x61 -8 x62 +7 x4 +1 x83 +2 x84 +4 x85 +8 x86  = 6 ;

+1 x87 +2 x88 +4 x89 +8 x90  >= 0 ;
+1 x43 +2 x44 +4 x45 +8 x46 -1 x63 -2 x64 -4 x65 -8 x66 +7 x5 +1 x87 +2 x88 +4 x89 +8 x90  = 6 ;

+1 x91 +2 x92 +4 x93 +8 x94  >= 0 ;
+1 x43 +2 x44 +4 x45 +8 x46 -1 x67 -2 x68 -4 x69 -8 x70 +7 x6 +1 x91 +2 x92 +4 x93 +8 x94  = 6 ;

+1 x95 +2 x96 +4 x97 +8 x98  >= 0 ;
+1 x47 +2 x48 +4 x49 +8 x50 -1 x43 -2 x44 -4 x45 -8 x46 +7 x7 +1 x95 +2 x96 +4 x97 +8 x98  = 6 ;

+1 x99 +2 x100 +4 x101 +8 x102  >= 0 ;
+1 x47 +2 x48 +4 x49 +8 x50 -1 x51 -2 x52 -4 x53 -8 x54 +7 x8 +1 x99 +2 x100 +4 x101 +8 x102  = 6 ;

+1 x103 +2 x104 +4 x105 +8 x106  >= 0 ;
+1 x47 +2 x48 +4 x49 +8 x50 -1 x55 -2 x56 -4 x57 -8 x58 +7 x9 +1 x103 +2 x104 +4 x105 +8 x106  = 6 ;

+1 x107 +2 x108 +4 x109 +8 x110  >= 0 ;
+1 x47 +2 x48 +4 x49 +8 x50 -1 x59 -2 x60 -4 x61 -8 x62 +7 x10 +1 x107 +2 x108 +4 x109 +8 x110  = 6 ;

+1 x111 +2 x112 +4 x113 +8 x114  >= 0 ;
+1 x47 +2 x48 +4 x49 +8 x50 -1 x63 -2 x64 -4 x65 -8 x66 +7 x11 +1 x111 +2 x112 +4 x113 +8 x114  = 6 ;

+1 x115 +2 x116 +4 x117 +8 x118  >= 0 ;
+1 x47 +2 x48 +4 x49 +8 x50 -1 x67 -2 x68 -4 x69 -8 x70 +7 x12 +1 x115 +2 x116 +4 x117 +8 x118  = 6 ;

+1 x119 +2 x120 +4 x121 +8 x122  >= 0 ;
+1 x51 +2 x52 +4 x53 +8 x54 -1 x43 -2 x44 -4 x45 -8 x46 +7 x13 +1 x119 +2 x120 +4 x121 +8 x122  = 6 ;

+1 x123 +2 x124 +4 x125 +8 x126  >= 0 ;
+1 x51 +2 x52 +4 x53 +8 x54 -1 x47 -2 x48 -4 x49 -8 x50 +7 x14 +1 x123 +2 x124 +4 x125 +8 x126  = 6 ;

+1 x127 +2 x128 +4 x129 +8 x130  >= 0 ;
+1 x51 +2 x52 +4 x53 +8 x54 -1 x55 -2 x56 -4 x57 -8 x58 +7 x15 +1 x127 +2 x128 +4 x129 +8 x130  = 6 ;

+1 x131 +2 x132 +4 x133 +8 x134  >= 0 ;
+1 x51 +2 x52 +4 x53 +8 x54 -1 x59 -2 x60 -4 x61 -8 x62 +7 x16 +1 x131 +2 x132 +4 x133 +8 x134  = 6 ;

+1 x135 +2 x136 +4 x137 +8 x138  >= 0 ;
+1 x51 +2 x52 +4 x53 +8 x54 -1 x63 -2 x64 -4 x65 -8 x66 +7 x17 +1 x135 +2 x136 +4 x137 +8 x138  = 6 ;

+1 x139 +2 x140 +4 x141 +8 x142  >= 0 ;
+1 x51 +2 x52 +4 x53 +8 x54 -1 x67 -2 x68 -4 x69 -8 x70 +7 x18 +1 x139 +2 x140 +4 x141 +8 x142  = 6 ;

+1 x143 +2 x144 +4 x145 +8 x146  >= 0 ;
+1 x55 +2 x56 +4 x57 +8 x58 -1 x43 -2 x44 -4 x45 -8 x46 +7 x19 +1 x143 +2 x144 +4 x145 +8 x146  = 6 ;

+1 x147 +2 x148 +4 x149 +8 x150  >= 0 ;
+1 x55 +2 x56 +4 x57 +8 x58 -1 x47 -2 x48 -4 x49 -8 x50 +7 x20 +1 x147 +2 x148 +4 x149 +8 x150  = 6 ;

+1 x151 +2 x152 +4 x153 +8 x154  >= 0 ;
+1 x55 +2 x56 +4 x57 +8 x58 -1 x51 -2 x52 -4 x53 -8 x54 +7 x21 +1 x151 +2 x152 +4 x153 +8 x154  = 6 ;

+1 x155 +2 x156 +4 x157 +8 x158  >= 0 ;
+1 x55 +2 x56 +4 x57 +8 x58 -1 x59 -2 x60 -4 x61 -8 x62 +7 x22 +1 x155 +2 x156 +4 x157 +8 x158  = 6 ;

+1 x159 +2 x160 +4 x161 +8 x162  >= 0 ;
+1 x55 +2 x56 +4 x57 +8 x58 -1 x63 -2 x64 -4 x65 -8 x66 +7 x23 +1 x159 +2 x160 +4 x161 +8 x162  = 6 ;

+1 x163 +2 x164 +4 x165 +8 x166  >= 0 ;
+1 x55 +2 x56 +4 x57 +8 x58 -1 x67 -2 x68 -4 x69 -8 x70 +7 x24 +1 x163 +2 x164 +4 x165 +8 x166  = 6 ;

+1 x167 +2 x168 +4 x169 +8 x170  >= 0 ;
+1 x59 +2 x60 +4 x61 +8 x62 -1 x43 -2 x44 -4 x45 -8 x46 +7 x25 +1 x167 +2 x168 +4 x169 +8 x170  = 6 ;

+1 x171 +2 x172 +4 x173 +8 x174  >= 0 ;
+1 x59 +2 x60 +4 x61 +8 x62 -1 x47 -2 x48 -4 x49 -8 x50 +7 x26 +1 x171 +2 x172 +4 x173 +8 x174  = 6 ;

+1 x175 +2 x176 +4 x177 +8 x178  >= 0 ;
+1 x59 +2 x60 +4 x61 +8 x62 -1 x51 -2 x52 -4 x53 -8 x54 +7 x27 +1 x175 +2 x176 +4 x177 +8 x178  = 6 ;

+1 x179 +2 x180 +4 x181 +8 x182  >= 0 ;
+1 x59 +2 x60 +4 x61 +8 x62 -1 x55 -2 x56 -4 x57 -8 x58 +7 x28 +1 x179 +2 x180 +4 x181 +8 x182  = 6 ;

+1 x183 +2 x184 +4 x185 +8 x186  >= 0 ;
+1 x59 +2 x60 +4 x61 +8 x62 -1 x63 -2 x64 -4 x65 -8 x66 +7 x29 +1 x183 +2 x184 +4 x185 +8 x186  = 6 ;

+1 x187 +2 x188 +4 x189 +8 x190  >= 0 ;
+1 x59 +2 x60 +4 x61 +8 x62 -1 x67 -2 x68 -4 x69 -8 x70 +7 x30 +1 x187 +2 x188 +4 x189 +8 x190  = 6 ;

+1 x191 +2 x192 +4 x193 +8 x194  >= 0 ;
+1 x63 +2 x64 +4 x65 +8 x66 -1 x43 -2 x44 -4 x45 -8 x46 +7 x31 +1 x191 +2 x192 +4 x193 +8 x194  = 6 ;

+1 x195 +2 x196 +4 x197 +8 x198  >= 0 ;
+1 x63 +2 x64 +4 x65 +8 x66 -1 x47 -2 x48 -4 x49 -8 x50 +7 x32 +1 x195 +2 x196 +4 x197 +8 x198  = 6 ;

+1 x199 +2 x200 +4 x201 +8 x202  >= 0 ;
+1 x63 +2 x64 +4 x65 +8 x66 -1 x51 -2 x52 -4 x53 -8 x54 +7 x33 +1 x199 +2 x200 +4 x201 +8 x202  = 6 ;

+1 x203 +2 x204 +4 x205 +8 x206  >= 0 ;
+1 x63 +2 x64 +4 x65 +8 x66 -1 x55 -2 x56 -4 x57 -8 x58 +7 x34 +1 x203 +2 x204 +4 x205 +8 x206  = 6 ;

+1 x207 +2 x208 +4 x209 +8 x210  >= 0 ;
+1 x63 +2 x64 +4 x65 +8 x66 -1 x59 -2 x60 -4 x61 -8 x62 +7 x35 +1 x207 +2 x208 +4 x209 +8 x210  = 6 ;

+1 x211 +2 x212 +4 x213 +8 x214  >= 0 ;
+1 x63 +2 x64 +4 x65 +8 x66 -1 x67 -2 x68 -4 x69 -8 x70 +7 x36 +1 x211 +2 x212 +4 x213 +8 x214  = 6 ;